Problem:    
Rows:       192
Columns:    65 (48 integer, 48 binary)
Non-zeros:  752
Status:     INTEGER OPTIMAL
Objective:  value = 28.473474 (MINimum)

   No.   Row name        Activity     Lower bound   Upper bound
------ ------------    ------------- ------------- -------------
     1 r.5                   28.4735             0               
     2 r.6                   14.7562      -995.364               
     3 r.7                   1028.47             0               
     4 r.8                  -988.615      -993.799               
     5 r.9                   1028.47             0               
     6 r.10                 -988.478      -996.951               
     7 r.11                  28.4735             0               
     8 r.12                  14.8932      -995.667               
     9 r.13                  1028.47             0               
    10 r.14                 -993.144       -997.45               
    11 r.15                  28.4735             0               
    12 r.16                  14.8932      -995.848               
    13 r.17                  1028.47             0               
    14 r.18                 -996.299      -999.612               
    15 r.19                  28.4735             0               
    16 r.20                   5.7354      -998.844               
    17 r.21                  28.4735             0               
    18 r.22                  5.18438      -998.292               
    19 r.23                  1028.47             0               
    20 r.24                 -994.816      -996.106               
    21 r.25                  1028.47             0               
    22 r.26                 -999.316      -999.316               
    23 r.27                  28.4735             0               
    24 r.28                  1.84171      -993.068               
    25 r.29                  28.4735             0               
    26 r.30                  28.4735      -994.706               
    27 r.31                  1028.47             0               
    28 r.32                 -971.527      -996.245               
    29 r.33                  1028.47             0               
    30 r.34                 -971.527      -984.666               
    31 r.35                  28.4735             0               
    32 r.36                  28.4735      -947.688               
    33 r.37                        1             1             = 
    34 r.38                        1             1             = 
    35 r.39                        1             1             = 
    36 r.40                        1             1             = 
    37 r.41                        1             1             = 
    38 r.42                        1             1             = 
    39 r.43                        1             1             = 
    40 r.44                        1             1             = 
    41 r.45                     1001             2               
    42 r.46                    -1001         -1001               
    43 r.47                  1998.38      -996.951               
    44 r.48                     1001             2               
    45 r.49                    -1001         -1001               
    46 r.50                  2001.75      -995.667               
    47 r.51                     1001             2               
    48 r.52                    -1001         -1001               
    49 r.53                  1993.72       -997.45               
    50 r.54                     1001             2               
    51 r.55                    -1001         -1001               
    52 r.56                  2001.75      -995.848               
    53 r.57                  10.4495      -995.364               
    54 r.58                 -992.922      -993.799               
    55 r.59                  9.57179      -995.364               
    56 r.60                 -993.799      -993.799               
    57 r.61                  9.57179      -995.364               
    58 r.62                 -993.799      -993.799               
    59 r.63                  9.57179      -995.364               
    60 r.64                 -993.799      -993.799               
    61 r.65                  15.3343      -994.706               
    62 r.66                 -984.666      -996.245               
    63 r.67                  15.3343      -994.706               
    64 r.68                 -984.666      -996.245               
    65 r.69                 -984.666      -984.666               
    66 r.70                  15.3343      -947.688               
    67 r.71                 -984.666      -984.666               
    68 r.72                  15.3343      -947.688               
    69 r.73                     1001             2               
    70 r.74                    -1001         -1001               
    71 r.75                  2001.62        4.6358               
    72 r.76                     1001             2               
    73 r.77                    -1001         -1001               
    74 r.78                  1998.25       6.20068               
    75 r.79                        2             2               
    76 r.80                       -2         -1001               
    77 r.81                 -6.28263       -997.45               
    78 r.82                     1000             2               
    79 r.83                    -1000         -1001               
    80 r.84                  2001.75      -995.848               
    81 r.85                 -992.785      -996.951               
    82 r.86                  10.5865      -995.667               
    83 r.87                 -993.662      -996.951               
    84 r.88                  9.70882      -995.667               
    85 r.89                     1001             2               
    86 r.90                    -1001         -1001               
    87 r.91                  1992.05      -998.292               
    88 r.92                     1001             2               
    89 r.93                    -1001         -1001               
    90 r.94                  1992.05      -996.106               
    91 r.95                 -989.769      -996.951               
    92 r.96                  13.6025      -995.667               
    93 r.97                 -989.769      -996.951               
    94 r.98                  13.6025      -995.667               
    95 r.99                  15.3343      -994.706               
    96 r.100                -984.666      -996.245               
    97 r.101                 15.3343      -994.706               
    98 r.102                -984.666      -996.245               
    99 r.103                -984.666      -984.666               
   100 r.104                 15.3343      -947.688               
   101 r.105                -984.666      -984.666               
   102 r.106                 15.3343      -947.688               
   103 r.107                    1001             2               
   104 r.108                   -1001         -1001               
   105 r.109                 2006.28        4.6358               
   106 r.110                    1001             2               
   107 r.111                   -1001         -1001               
   108 r.112                 1998.25       6.20068               
   109 r.113                       2             2               
   110 r.114                      -2         -1001               
   111 r.115                 3.04854       3.04854               
   112 r.116                    1000             2               
   113 r.117                   -1000         -1001               
   114 r.118                 2001.75       4.33308               
   115 r.119                       2             2               
   116 r.120                      -2         -1001               
   117 r.121                -4.77303      -999.612               
   118 r.122                    1000             2               
   119 r.123                   -1000         -1001               
   120 r.124                  1992.6      -998.844               
   121 r.125                    1001             2               
   122 r.126                   -1001         -1001               
   123 r.127                 1996.71      -998.292               
   124 r.128                    1001             2               
   125 r.129                   -1001         -1001               
   126 r.130                 1992.05      -996.106               
   127 r.131                -994.434       -997.45               
   128 r.132                 13.6025      -995.848               
   129 r.133                -994.434       -997.45               
   130 r.134                 13.6025      -995.848               
   131 r.135                 19.9999      -994.706               
   132 r.136                    -980      -996.245               
   133 r.137                 15.3343      -994.706               
   134 r.138                -984.666      -996.245               
   135 r.139                    -980      -984.666               
   136 r.140                 19.9999      -947.688               
   137 r.141                -984.666      -984.666               
   138 r.142                 15.3343      -947.688               
   139 r.143                       2             2               
   140 r.144                      -2         -1001               
   141 r.145                  2.5498        2.5498               
   142 r.146                    1000             2               
   143 r.147                   -1000         -1001               
   144 r.148                 2009.71       4.15221               
   145 r.149                    1001             2               
   146 r.150                   -1001         -1001               
   147 r.151                 2000.88      -998.292               
   148 r.152                    1001             2               
   149 r.153                   -1001         -1001               
   150 r.154                    2000      -996.106               
   151 r.155                 -997.59      -999.612               
   152 r.156                 4.44471      -998.844               
   153 r.157                 -997.59      -999.612               
   154 r.158                 4.44471      -998.844               
   155 r.159                    1001             2               
   156 r.160                   -1001         -1001               
   157 r.161                 2006.34       3.04854               
   158 r.162                    1001             2               
   159 r.163                   -1001         -1001               
   160 r.164                 2009.71       4.33308               
   161 r.165                    1001             2               
   162 r.166                   -1001         -1001               
   163 r.167                 2001.67        2.5498               
   164 r.168                    1001             2               
   165 r.169                   -1001         -1001               
   166 r.170                 2009.71       4.15221               
   167 r.171                    1001             2               
   168 r.172                   -1001         -1001               
   169 r.173                 1998.52        0.3876               
   170 r.174                    1001             2               
   171 r.175                   -1001         -1001               
   172 r.176                 2000.55       1.15611               
   173 r.177                 3.89369      -998.292               
   174 r.178                -996.106      -996.106               
   175 r.179                 3.89369      -998.292               
   176 r.180                -996.106      -996.106               
   177 r.181                 23.2891      -994.706               
   178 r.182                -976.711      -996.245               
   179 r.183                 23.2891      -994.706               
   180 r.184                -976.711      -996.245               
   181 r.185                    1001             2               
   182 r.186                   -1001         -1001               
   183 r.187                    2000      -984.666               
   184 r.188                    1001             2               
   185 r.189                   -1001         -1001               
   186 r.190                    2000      -947.688               
   187 r.191                    1001             2               
   188 r.192                   -1001         -1001               
   189 r.193                    2000        5.2939               
   190 r.194                    1001             2               
   191 r.195                   -1001         -1001               
   192 r.196                    2000        3.7553               

   No. Column name       Activity     Lower bound   Upper bound
------ ------------    ------------- ------------- -------------
     1 tt                    28.4735             0               
     2 s_1_1        *              0             0             1 
     3 t_1_1                 15.3343             0               
     4 s_1_7        *              0             0             1 
     5 s_1_8        *              1             0             1 
     6 s_2_1        *              1             0             1 
     7 t_2_1                 15.3343             0               
     8 s_2_7        *              1             0             1 
     9 s_2_8        *              0             0             1 
    10 s_1_2        *              1             0             1 
    11 t_1_2                 15.3343             0               
    12 s_2_2        *              0             0             1 
    13 t_2_2                 15.3343             0               
    14 s_1_3        *              1             0             1 
    15 t_1_3                 19.9999             0               
    16 s_2_3        *              0             0             1 
    17 t_2_3                 15.3343             0               
    18 s_1_4        *              1             0             1 
    19 t_1_4                 24.1668             0               
    20 s_2_4        *              0             0             1 
    21 t_2_4                 23.2891             0               
    22 s_1_5        *              0             0             1 
    23 t_1_5                 23.2891             0               
    24 s_2_5        *              1             0             1 
    25 t_2_5                 23.2891             0               
    26 s_1_6        *              1             0             1 
    27 t_1_6                 27.1828             0               
    28 s_2_6        *              0             0             1 
    29 t_2_6                 27.1828             0               
    30 t_1_7                       0             0               
    31 t_2_7                       0             0               
    32 t_1_8                       0             0               
    33 t_2_8                       0             0               
    34 r_1_1_2      *              1             0             1 
    35 u_1_1_2      *              0             0             1 
    36 r_2_1_2      *              1             0             1 
    37 u_2_1_2      *              0             0             1 
    38 r_1_1_3      *              1             0             1 
    39 u_1_1_3      *              0             0             1 
    40 r_2_1_3      *              1             0             1 
    41 u_2_1_3      *              0             0             1 
    42 r_1_2_3      *              0             0             1 
    43 u_1_2_3      *              0             0             1 
    44 r_2_2_3      *              1             0             1 
    45 u_2_2_3      *              0             0             1 
    46 r_1_2_5      *              1             0             1 
    47 u_1_2_5      *              0             0             1 
    48 r_2_2_5      *              1             0             1 
    49 u_2_2_5      *              0             0             1 
    50 r_1_3_4      *              0             0             1 
    51 u_1_3_4      *              0             0             1 
    52 r_2_3_4      *              1             0             1 
    53 u_2_3_4      *              0             0             1 
    54 r_1_3_5      *              1             0             1 
    55 u_1_3_5      *              0             0             1 
    56 r_2_3_5      *              1             0             1 
    57 u_2_3_5      *              0             0             1 
    58 r_1_4_5      *              1             0             1 
    59 u_1_4_5      *              0             0             1 
    60 r_2_4_5      *              1             0             1 
    61 u_2_4_5      *              0             0             1 
    62 r_1_7_8      *              1             0             1 
    63 u_1_7_8      *              0             0             1 
    64 r_2_7_8      *              1             0             1 
    65 u_2_7_8      *              0             0             1 

Integer feasibility conditions:

KKT.PE: max.abs.err = 2.27e-13 on row 46
        max.rel.err = 6.72e-17 on row 82
        High quality

KKT.PB: max.abs.err = 4.44e-16 on row 111
        max.rel.err = 1.10e-16 on row 111
        High quality

End of output
